
List of user-set options:

                                    Name   Value                used
                           compl_inf_tol = 1                     yes
                         constr_viol_tol = 1                     yes
                            dual_inf_tol = 1000                  yes
                           linear_solver = ma97                  yes
                              ma86_small = 1e-30                  no
                                  ma86_u = 0.0001                 no
                              ma97_order = best                  yes
                              ma97_small = 1e-30                 yes
                            ma97_switch1 = at_start              yes
                            ma97_switch2 = od_hd_reuse           yes
                                  ma97_u = 1e-06                 yes
                               ma97_umax = 0.5                   yes
                                max_iter = 1000                  yes
                    max_refinement_steps = 20                    yes
                    min_refinement_steps = 5                     yes
                                 mu_init = 1e-06                 yes
           mu_superlinear_decrease_power = 1.25                  yes
                   nlp_scaling_min_value = 1e-08                 yes
                        option_file_name = Preset_Case_864_pf.opt  yes
                             output_file = ./tmp/Preset_Case_864_pf.output  yes
                      print_user_options = yes                   yes
        required_infeasibility_reduction = 1                      no
                                     tol = 1e-08                 yes
                   warm_start_bound_frac = 1e-20                 yes
                   warm_start_bound_push = 1e-20                 yes
                   warm_start_init_point = yes                   yes
              warm_start_mult_bound_push = 1e-20                 yes
                warm_start_mult_init_max = 1e+40                 yes
             warm_start_slack_bound_frac = 1e-20                 yes
             warm_start_slack_bound_push = 1e-20                 yes

******************************************************************************
This program contains Ipopt, a library for large-scale nonlinear optimization.
 Ipopt is released as open source code under the Eclipse Public License (EPL).
         For more information visit http://projects.coin-or.org/Ipopt
******************************************************************************

This is Ipopt version 3.12.10, running with linear solver ma97.

Number of nonzeros in equality constraint Jacobian...:   123443
Number of nonzeros in inequality constraint Jacobian.:      213
Number of nonzeros in Lagrangian Hessian.............:    49069

Total number of variables............................:    31591
                     variables with only lower bounds:    12912
                variables with lower and upper bounds:    15130
                     variables with only upper bounds:        0
Total number of equality constraints.................:    31483
Total number of inequality constraints...............:       25
        inequality constraints with only lower bounds:        4
   inequality constraints with lower and upper bounds:        0
        inequality constraints with only upper bounds:       21

iter    objective    inf_pr   inf_du lg(mu)  ||d||  lg(rg) alpha_du alpha_pr  ls
   0 -5.3785742e+00 4.46e-03 1.02e+00  -6.0 0.00e+00    -  0.00e+00 0.00e+00   0
   1 -5.3780735e+00 2.36e-02 1.02e+00  -6.0 3.03e+05    -  1.08e-04 5.61e-05h  5
   2 -5.3793287e+00 2.36e-02 5.08e+01  -6.0 3.54e+03    -  2.23e-01 1.21e-03h  1
   3 -5.7658568e+00 3.87e+00 2.02e+03  -6.0 3.53e+03    -  1.61e-01 3.74e-01f  1
   4 -5.8427727e+00 3.77e+00 1.77e+03  -6.0 1.62e+03    -  3.71e-02 1.90e-01h  1
   5 -5.9600310e+00 5.00e+00 1.51e+03  -6.0 1.31e+03    -  1.96e-01 3.07e-01h  1
   6 -6.0487432e+00 6.30e+00 1.06e+03  -6.0 1.05e+03    -  8.58e-02 4.72e-01h  1
   7 -6.0384403e+00 5.21e+00 2.22e+05  -6.0 3.60e+01  -4.0 2.58e-01 1.73e-01h  1
   8 -6.0383743e+00 5.20e+00 3.19e+05  -6.0 1.87e+01  -4.5 5.93e-01 1.37e-03h  1
   9 -6.0485206e+00 3.03e+00 1.59e+05  -6.0 5.01e+01  -5.0 5.65e-01 4.18e-01h  1
iter    objective    inf_pr   inf_du lg(mu)  ||d||  lg(rg) alpha_du alpha_pr  ls
  10 -6.0147506e+00 3.46e-01 1.15e+04  -6.0 3.14e+01  -5.4 8.36e-01 9.28e-01h  1
  11 -6.0126399e+00 3.90e-01 5.90e+06  -6.0 4.03e+01  -5.9 4.16e-03 1.20e-01h  2
  12 -6.0315997e+00 4.21e-01 4.34e+06  -6.0 7.62e+02    -  4.42e-01 2.64e-01h  1
  13 -6.0456271e+00 9.55e-01 1.74e+06  -6.0 2.75e+02  -6.4 1.06e-04 5.99e-01h  1
  14 -6.0454784e+00 8.52e-01 1.52e+06  -6.0 1.91e+02  -6.9 1.46e-01 1.27e-01h  1
  15 -6.0544685e+00 6.93e-01 1.29e+05  -6.0 1.56e+02  -7.3 4.58e-01 9.13e-01h  1
  16 -6.0555508e+00 6.25e-01 1.11e+05  -6.0 2.20e+02  -7.8 5.12e-01 1.39e-01h  1
  17 -6.0636753e+00 1.10e+00 1.25e+04  -6.0 1.91e+02  -7.4 2.72e-01 1.00e+00h  1
  18 -6.0662378e+00 1.15e+00 5.27e+03  -6.0 8.08e+02  -7.9 1.86e-01 8.46e-02h  1
  19 -6.0719738e+00 9.32e-01 3.38e+03  -6.0 2.20e+02  -7.4 5.06e-01 5.19e-01h  1
iter    objective    inf_pr   inf_du lg(mu)  ||d||  lg(rg) alpha_du alpha_pr  ls
  20 -6.0742454e+00 8.03e-01 1.35e+04  -6.0 2.51e+02  -7.9 8.03e-01 2.00e-01h  1
  21 -6.0792527e+00 7.39e-01 5.73e+04  -6.0 2.22e+02  -7.5 2.03e-01 4.66e-01h  1
  22 -6.0886983e+00 1.17e+00 4.63e+04  -6.0 2.42e+02  -8.0 5.58e-04 9.23e-01h  1
  23 -6.0978008e+00 8.83e-01 5.25e+04  -6.0 2.02e+02  -7.5 9.72e-01 6.04e-01h  1
  24 -6.1012749e+00 7.40e-01 5.74e+05  -6.0 2.81e+02  -8.0 5.76e-02 2.01e-01h  1
  25 -6.1013462e+00 7.39e-01 5.77e+05  -6.0 1.87e+03  -7.6 2.60e-01 5.01e-04h  1
  26 -6.1010966e+00 7.39e-01 6.05e+05  -6.0 2.23e+04  -8.1 1.65e-05 2.04e-04h  7
  27 -6.0958006e+00 7.36e-01 4.75e+05  -6.0 1.33e+03  -7.6 5.08e-04 1.07e-02h  4
  28 -6.1006648e+00 7.10e-01 5.07e+05  -6.0 4.30e+02  -7.2 1.00e+00 7.68e-02h  1
  29 -6.0842522e+00 4.81e-01 6.34e+04  -6.0 3.01e+02  -7.7 3.13e-02 3.74e-01H  1
iter    objective    inf_pr   inf_du lg(mu)  ||d||  lg(rg) alpha_du alpha_pr  ls
  30 -6.0800418e+00 4.76e-01 1.02e+06  -6.0 5.52e+02  -7.3 4.63e-01 4.71e-02H  1
  31 -6.1126478e+00 5.83e-01 9.74e+05  -6.0 5.94e+03  -6.8 3.01e-02 2.01e-02h  1
  32 -6.1128333e+00 1.31e+00 9.27e+05  -6.0 3.78e+02  -7.3 1.21e-04 5.07e-01h  1
  33 -6.1128346e+00 1.31e+00 2.03e+06  -6.0 1.67e+04  -7.8 4.80e-04 2.88e-07h  2
  34 -6.1247716e+00 1.30e+00 1.84e+06  -6.0 1.86e+03  -7.4 8.80e-02 2.36e-02h  1
  35 -6.1127523e+00 1.22e+00 1.03e+06  -6.0 5.33e+02  -7.9 2.34e-02 9.88e-02h  1
  36 -6.1263580e+00 1.17e+00 9.75e+05  -6.0 9.22e+02  -7.4 3.10e-05 5.17e-02h  1
  37 -6.1322215e+00 8.48e-01 2.45e+03  -6.0 1.63e+02  -7.0 6.09e-01 1.00e+00h  1
  38 -6.1298816e+00 4.00e-01 6.01e+02  -6.0 2.11e+02  -7.5 3.79e-01 7.07e-01h  1
  39 -6.1302833e+00 2.99e-01 5.36e+01  -6.0 1.28e+02  -7.1 7.04e-01 1.00e+00h  1
iter    objective    inf_pr   inf_du lg(mu)  ||d||  lg(rg) alpha_du alpha_pr  ls
  40 -6.1322282e+00 4.80e-02 1.84e+01  -6.0 5.11e+01  -6.6 1.00e+00 1.00e+00h  1
  41 -6.1390707e+00 9.23e-01 6.58e+01  -6.0 2.25e+02  -7.1 6.53e-01 1.00e+00h  1
  42 -6.1610057e+00 3.17e+00 2.93e+02  -6.0 1.09e+04    -  9.42e-03 6.16e-02h  1
  43 -6.1623248e+00 2.90e+00 2.61e+02  -6.0 1.16e+03    -  6.95e-01 8.81e-02h  1
  44 -6.1732604e+00 7.44e+00 6.57e+02  -6.0 8.16e+02    -  1.00e+00 1.00e+00h  1
  45 -6.1751738e+00 6.67e+00 5.40e+02  -6.0 3.83e+03    -  1.33e-01 1.04e-01h  1
  46 -6.1768793e+00 8.48e+00 4.23e+02  -6.0 1.28e+03    -  3.87e-01 5.57e-01h  1
  47 -6.1767750e+00 8.59e+00 4.14e+02  -6.0 6.80e+03    -  5.51e-02 2.11e-02h  5
  48 -6.1735808e+00 7.98e+00 2.18e+02  -6.0 1.04e+03    -  1.68e-01 4.83e-01h  1
  49 -6.1733258e+00 7.33e+00 1.99e+02  -6.0 1.63e+03    -  1.58e-01 8.78e-02h  1
iter    objective    inf_pr   inf_du lg(mu)  ||d||  lg(rg) alpha_du alpha_pr  ls
  50 -6.1732896e+00 7.23e+00 1.96e+02  -6.0 4.09e+02    -  3.08e-02 1.34e-02h  1
  51 -6.1705091e+00 4.30e+00 1.23e+01  -6.0 5.21e+02    -  2.90e-01 1.00e+00h  1
  52 -6.1705827e+00 2.26e+00 5.71e+00  -6.0 3.26e+02    -  3.46e-01 5.54e-01h  1
  53 -6.1705107e+00 3.97e-02 2.15e+00  -6.0 3.96e+01    -  6.20e-01 1.00e+00h  1
  54 -6.1705478e+00 4.69e-01 9.70e-02  -6.0 1.78e+02    -  1.00e+00 1.00e+00h  1
  55 -6.1705294e+00 2.21e-03 1.04e-04  -6.0 9.47e+00    -  1.00e+00 1.00e+00h  1
  56 -6.1705294e+00 1.06e-05 1.29e-06  -6.0 6.68e-01    -  1.00e+00 1.00e+00h  1
  57 -6.1705294e+00 3.27e-10 2.97e-11  -6.0 3.69e-03    -  1.00e+00 1.00e+00h  1
  58 -6.1705961e+00 7.21e-03 6.62e+01  -7.5 2.98e+01    -  9.51e-01 7.22e-01h  1
  59 -6.1706051e+00 1.78e-03 1.11e+01  -7.5 8.48e+00    -  1.00e+00 8.62e-01h  1
iter    objective    inf_pr   inf_du lg(mu)  ||d||  lg(rg) alpha_du alpha_pr  ls
  60 -6.1706051e+00 1.88e-05 3.81e-02  -7.5 1.14e+00    -  1.00e+00 1.00e+00h  1
  61 -6.1706051e+00 1.62e-08 1.91e-07  -7.5 1.98e-02    -  1.00e+00 1.00e+00h  1
  62 -6.1706067e+00 1.01e-05 6.47e-01  -9.0 9.47e-01    -  9.23e-01 8.52e-01h  1
  63 -6.1706070e+00 3.06e-07 3.33e-01  -9.0 1.38e-01    -  9.16e-01 1.00e+00f  1
  64 -6.1706070e+00 2.84e-10 2.19e-08  -9.0 3.02e-04    -  1.00e+00 1.00e+00h  1
  65 -6.1706070e+00 2.84e-10 5.99e-10  -9.0 9.09e-06    -  1.00e+00 1.00e+00h  1

Number of Iterations....: 65

                                   (scaled)                 (unscaled)
Objective...............:  -4.8207867074779722e+00   -6.1706069855718049e+00
Dual infeasibility......:   5.9921888884022469e-10    7.6700017771548764e-10
Constraint violation....:   2.8449088462605132e-10    2.8449088462605132e-10
Complementarity.........:   9.2951414835304846e-10    1.1897781098919020e-09
Overall NLP error.......:   9.2951414835304846e-10    1.1897781098919020e-09


Number of objective function evaluations             = 94
Number of objective gradient evaluations             = 66
Number of equality constraint evaluations            = 94
Number of inequality constraint evaluations          = 94
Number of equality constraint Jacobian evaluations   = 66
Number of inequality constraint Jacobian evaluations = 66
Number of Lagrangian Hessian evaluations             = 65
Total CPU secs in IPOPT (w/o function evaluations)   =    182.798
Total CPU secs in NLP function evaluations           =      2.739

EXIT: Optimal Solution Found.
